# Solution for model HELLO
# Objective value = 0
XXXXXXX0 0
XXXXXXX1 0
XXXXXXX2 0
XXXXXXX3 0
XXXXXXX4 0
XXXXXXX5 0
XXXXXXX6 0
XXXXXXX7 0
XXXXXXX8 0
XXXXXXX9 0
XXXXXX10 0
XXXXXX11 0
XXXXXX12 0
XXXXXX13 0
XXXXXX14 0
XXXXXX15 0
XXXXXX16 0
XXXXXX17 0
XXXXXX18 0
XXXXXX19 0
XXXXXX20 0
XXXXXX21 0
XXXXXX22 0
XXXXXX23 0
XXXXXX24 0
XXXXXX25 0
XXXXXX26 0
XXXXXX27 0
XXXXXX28 0
XXXXXX29 0
XXXXXX30 0
XXXXXX31 0
XXXXXX32 0
XXXXXX33 0
XXXXXX34 0
XXXXXX35 0
XXXXXX36 0
XXXXXX37 0
XXXXXX38 0
XXXXXX39 0
XXXXXX40 0
XXXXXX41 0
XXXXXX42 0
XXXXXX43 0
XXXXXX44 0
XXXXXX45 0
XXXXXX46 0
XXXXXX47 0
XXXXXX48 0
XXXXXX49 0
XXXXXX50 0
XXXXXX51 0
XXXXXX52 0
XXXXXX53 0
XXXXXX54 0
XXXXXX55 0
XXXXXX56 0
XXXXXX57 0
XXXXXX58 0
XXXXXX59 0
XXXXXX60 0
XXXXXX61 0
XXXXXX62 0
XXXXXX63 0
XXXXXX64 0
XXXXXX65 0
XXXXXX66 0
XXXXXX67 0
XXXXXX68 0
XXXXXX69 0
XXXXXX70 0
XXXXXX71 0
XXXXXX72 0
XXXXXX73 0
XXXXXX74 0
XXXXXX75 0
XXXXXX76 0
XXXXXX77 0
XXXXXX78 0
XXXXXX79 0
XXXXXX80 0
XXXXXX81 0
XXXXXX82 0
XXXXXX83 0
XXXXXX84 0
XXXXXX85 0
XXXXXX86 0
XXXXXX87 0
XXXXXX88 0
XXXXXX89 0
XXXXXX90 0
XXXXXX91 0
XXXXXX92 0
XXXXXX93 0
XXXXXX94 0
XXXXXX95 0
XXXXXX96 0
XXXXXX97 0
XXXXXX98 0
XXXXXX99 0
XXXXX100 0
XXXXX101 0
XXXXX102 0
XXXXX103 0
XXXXX104 0
XXXXX105 0
XXXXX106 0
XXXXX107 0
XXXXX108 0
XXXXX109 0
XXXXX110 0
XXXXX111 0
XXXXX112 0
XXXXX113 0
XXXXX114 0
XXXXX115 0
XXXXX116 0
XXXXX117 0
XXXXX118 0
XXXXX119 0
XXXXX120 0
XXXXX121 0
XXXXX122 0
XXXXX123 0
XXXXX124 0
XXXXX125 0
XXXXX126 0
XXXXX127 0
XXXXX128 0
XXXXX129 0
XXXXX130 0
XXXXX131 0
XXXXX132 0
XXXXX133 0
XXXXX134 0
XXXXX135 0
XXXXX136 0
XXXXX137 0
XXXXX138 0
XXXXX139 0
XXXXX140 0
XXXXX141 0
XXXXX142 0
XXXXX143 0
XXXXX144 0
XXXXX145 0
XXXXX146 0
XXXXX147 0
XXXXX148 0
XXXXX149 0
XXXXX150 0
XXXXX151 0
XXXXX152 0
XXXXX153 0
XXXXX154 0
XXXXX155 0
XXXXX156 0
XXXXX157 0
XXXXX158 0
XXXXX159 0
XXXXX160 0
XXXXX161 0
XXXXX162 0
XXXXX163 0
XXXXX164 0
XXXXX165 0
XXXXX166 0
XXXXX167 0
XXXXX168 0
XXXXX169 0
XXXXX170 0
XXXXX171 0
XXXXX172 0
XXXXX173 0
XXXXX174 0
XXXXX175 0
XXXXX176 0
XXXXX177 0
XXXXX178 0
XXXXX179 0
XXXXX180 0
XXXXX181 0
XXXXX182 0
XXXXX183 0
XXXXX184 0
XXXXX185 0
XXXXX186 0
XXXXX187 0
XXXXX188 0
XXXXX189 0
XXXXX190 0
XXXXX191 0
XXXXX192 0
XXXXX193 0
XXXXX194 0
XXXXX195 0
XXXXX196 0
XXXXX197 0
XXXXX198 0
XXXXX199 0
XXXXX200 0
XXXXX201 0
XXXXX202 0
XXXXX203 0
XXXXX204 0
XXXXX205 0
XXXXX206 0
XXXXX207 0
XXXXX208 0
XXXXX209 0
XXXXX210 0
XXXXX211 0
XXXXX212 0
XXXXX213 0
XXXXX214 0
XXXXX215 0
XXXXX216 0
XXXXX217 0
XXXXX218 0
XXXXX219 0
XXXXX220 0
XXXXX221 0
XXXXX222 0
XXXXX223 0
XXXXX224 0
XXXXX225 0
XXXXX226 0
XXXXX227 0
XXXXX228 0
XXXXX229 0
XXXXX230 0
XXXXX231 0
XXXXX232 0
XXXXX233 0
XXXXX234 0
XXXXX235 0
XXXXX236 0
XXXXX237 0
XXXXX238 0
XXXXX239 0
XXXXX240 0
XXXXX241 0
XXXXX242 0
XXXXX243 0
XXXXX244 0
XXXXX245 0
XXXXX246 0
XXXXX247 0
XXXXX248 0
XXXXX249 0
XXXXX250 0
XXXXX251 0
XXXXX252 0
XXXXX253 0
XXXXX254 0
XXXXX255 0
XXXXX256 0
XXXXX257 0
XXXXX258 0
XXXXX259 0
XXXXX260 0
XXXXX261 0
XXXXX262 0
XXXXX263 0
XXXXX264 0
XXXXX265 0
XXXXX266 0
XXXXX267 0
XXXXX268 0
XXXXX269 0
XXXXX270 0
XXXXX271 0
XXXXX272 0
XXXXX273 0
XXXXX274 0
XXXXX275 0
XXXXX276 0
XXXXX277 0
XXXXX278 0
XXXXX279 0
XXXXX280 0
XXXXX281 0
XXXXX282 0
XXXXX283 0
XXXXX284 0
XXXXX285 0
XXXXX286 0
XXXXX287 0
XXXXX288 0
XXXXX289 0
XXXXX290 0
XXXXX291 0
XXXXX292 0
XXXXX293 0
XXXXX294 0
XXXXX295 0
XXXXX296 0
XXXXX297 0
XXXXX298 0
XXXXX299 0
XXXXX300 0
XXXXX301 0
XXXXX302 0
XXXXX303 0
XXXXX304 0
XXXXX305 0
XXXXX306 0
XXXXX307 0
XXXXX308 0
XXXXX309 0
XXXXX310 0
XXXXX311 0
XXXXX312 0
XXXXX313 0
XXXXX314 0
XXXXX315 0
XXXXX316 0
XXXXX317 0
XXXXX318 0
XXXXX319 0
XXXXX320 0
XXXXX321 0
XXXXX322 0
XXXXX323 0
XXXXX324 0
XXXXX325 0
XXXXX326 0
XXXXX327 0
XXXXX328 0
XXXXX329 0
XXXXX330 0
XXXXX331 0
XXXXX332 0
XXXXX333 0
XXXXX334 0
XXXXX335 0
XXXXX336 0
XXXXX337 0
XXXXX338 0
XXXXX339 0
XXXXX340 0
XXXXX341 0
XXXXX342 0
XXXXX343 0
XXXXX344 0
XXXXX345 0
XXXXX346 0
XXXXX347 0
XXXXX348 0
XXXXX349 0
XXXXX350 0
XXXXX351 0
XXXXX352 0
XXXXX353 0
XXXXX354 0
XXXXX355 0
XXXXX356 0
XXXXX357 0
XXXXX358 0
XXXXX359 0
XXXXX360 0
XXXXX361 0
XXXXX362 0
XXXXX363 0
XXXXX364 0
XXXXX365 0
XXXXX366 0
XXXXX367 0
XXXXX368 0
XXXXX369 0
XXXXX370 0
XXXXX371 0
XXXXX372 0
XXXXX373 0
XXXXX374 0
XXXXX375 0
XXXXX376 0
XXXXX377 0
XXXXX378 0
XXXXX379 0
XXXXX380 0
XXXXX381 0
XXXXX382 0
XXXXX383 0
XXXXX384 0
XXXXX385 0
XXXXX386 0
XXXXX387 0
XXXXX388 0
XXXXX389 0
XXXXX390 0
XXXXX391 0
XXXXX392 0
XXXXX393 0
XXXXX394 0
XXXXX395 0
XXXXX396 0
XXXXX397 0
XXXXX398 0
XXXXX399 0
XXXXX400 0
XXXXX401 0
XXXXX402 0
XXXXX403 0
XXXXX404 0
XXXXX405 0
XXXXX406 0
XXXXX407 0
XXXXX408 0
XXXXX409 0
XXXXX410 0
XXXXX411 0
XXXXX412 0
XXXXX413 0
XXXXX414 0
XXXXX415 0
XXXXX416 0
XXXXX417 0
XXXXX418 0
XXXXX419 0
XXXXX420 0
XXXXX421 0
XXXXX422 0
XXXXX423 0
XXXXX424 0
XXXXX425 0
XXXXX426 0
XXXXX427 0
XXXXX428 0
XXXXX429 0
XXXXX430 0
XXXXX431 0
XXXXX432 0
XXXXX433 0
XXXXX434 0
XXXXX435 0
XXXXX436 0
XXXXX437 0
XXXXX438 0
XXXXX439 0
XXXXX440 0
XXXXX441 0
XXXXX442 0
XXXXX443 0
XXXXX444 0
XXXXX445 0
XXXXX446 0
XXXXX447 0
XXXXX448 0
XXXXX449 0
XXXXX450 0
XXXXX451 0
XXXXX452 0
XXXXX453 0
XXXXX454 0
XXXXX455 0
XXXXX456 0
XXXXX457 0
XXXXX458 0
XXXXX459 0
XXXXX460 0
XXXXX461 0
XXXXX462 0
XXXXX463 0
XXXXX464 0
XXXXX465 0
XXXXX466 0
XXXXX467 0
XXXXX468 0
XXXXX469 0
XXXXX470 0
XXXXX471 0
XXXXX472 0
XXXXX473 0
XXXXX474 0
XXXXX475 0
XXXXX476 0
XXXXX477 0
XXXXX478 0
XXXXX479 0
XXXXX480 0
XXXXX481 0
XXXXX482 0
XXXXX483 0
XXXXX484 0
XXXXX485 0
XXXXX486 0
XXXXX487 0
XXXXX488 0
XXXXX489 0
XXXXX490 0
XXXXX491 0
XXXXX492 0
XXXXX493 0
XXXXX494 0
XXXXX495 0
XXXXX496 0
XXXXX497 0
XXXXX498 0
XXXXX499 0
XXXXX500 0
XXXXX501 0
XXXXX502 0
XXXXX503 0
XXXXX504 0
XXXXX505 0
XXXXX506 0
XXXXX507 0
XXXXX508 0
XXXXX509 0
XXXXX510 0
XXXXX511 0
XXXXX512 0
XXXXX513 0
XXXXX514 0
XXXXX515 0
XXXXX516 0
XXXXX517 0
XXXXX518 0
XXXXX519 0
XXXXX520 0
XXXXX521 0
XXXXX522 0
XXXXX523 0
XXXXX524 0
XXXXX525 0
XXXXX526 0
XXXXX527 0
XXXXX528 0
XXXXX529 0
XXXXX530 0
XXXXX531 0
XXXXX532 0
XXXXX533 0
XXXXX534 0
XXXXX535 0
XXXXX536 0
XXXXX537 0
XXXXX538 0
XXXXX539 0
XXXXX540 0
XXXXX541 0
XXXXX542 0
XXXXX543 0
XXXXX544 0
XXXXX545 0
XXXXX546 0
XXXXX547 0
XXXXX548 0
XXXXX549 0
XXXXX550 0
XXXXX551 0
XXXXX552 0
XXXXX553 0
XXXXX554 0
XXXXX555 0
XXXXX556 0
XXXXX557 0
XXXXX558 0
XXXXX559 0
XXXXX560 0
XXXXX561 0
XXXXX562 0
XXXXX563 0
XXXXX564 0
XXXXX565 0
XXXXX566 0
XXXXX567 0
XXXXX568 0
XXXXX569 0
XXXXX570 0
XXXXX571 0
XXXXX572 0
XXXXX573 0
XXXXX574 0
XXXXX575 0
XXXXX576 0
XXXXX577 0
XXXXX578 0
XXXXX579 0
XXXXX580 0
XXXXX581 0
XXXXX582 0
XXXXX583 0
XXXXX584 0
XXXXX585 0
XXXXX586 0
XXXXX587 0
XXXXX588 0
XXXXX589 0
XXXXX590 0
XXXXX591 0
XXXXX592 0
XXXXX593 0
XXXXX594 0
XXXXX595 0
XXXXX596 0
XXXXX597 0
XXXXX598 0
XXXXX599 0
XXXXX600 0
XXXXX601 0
XXXXX602 0
XXXXX603 0
XXXXX604 0
XXXXX605 0
XXXXX606 0
XXXXX607 0
XXXXX608 0
XXXXX609 0
XXXXX610 0
XXXXX611 0
XXXXX612 0
XXXXX613 0
XXXXX614 0
XXXXX615 0
XXXXX616 0
XXXXX617 0
XXXXX618 0
XXXXX619 0
XXXXX620 0
XXXXX621 0
XXXXX622 0
XXXXX623 0
XXXXX624 0
XXXXX625 0
XXXXX626 0
XXXXX627 0
XXXXX628 0
XXXXX629 0
XXXXX630 0
XXXXX631 0
XXXXX632 0
XXXXX633 0
XXXXX634 0
XXXXX635 0
XXXXX636 0
XXXXX637 0
XXXXX638 0
XXXXX639 0
XXXXX640 0
XXXXX641 0
XXXXX642 0
XXXXX643 0
XXXXX644 0
XXXXX645 0
XXXXX646 0
XXXXX647 0
XXXXX648 0
XXXXX649 0
XXXXX650 0
XXXXX651 0
XXXXX652 0
XXXXX653 0
XXXXX654 0
XXXXX655 0
XXXXX656 0
XXXXX657 0
XXXXX658 0
XXXXX659 0
XXXXX660 0
XXXXX661 0
XXXXX662 0
XXXXX663 0
XXXXX664 0
XXXXX665 0
XXXXX666 0
XXXXX667 0
XXXXX668 0
XXXXX669 0
XXXXX670 0
XXXXX671 0
XXXXX672 0
XXXXX673 0
XXXXX674 0
XXXXX675 0
XXXXX676 0
XXXXX677 0
XXXXX678 0
XXXXX679 0
XXXXX680 0
XXXXX681 0
XXXXX682 0
XXXXX683 0
XXXXX684 0
XXXXX685 0
XXXXX686 0
XXXXX687 0
XXXXX688 0
XXXXX689 0
XXXXX690 0
XXXXX691 0
XXXXX692 0
XXXXX693 0
XXXXX694 0
XXXXX695 0
XXXXX696 0
XXXXX697 0
XXXXX698 0
XXXXX699 0
XXXXX700 0
XXXXX701 0
XXXXX702 0
XXXXX703 0
XXXXX704 0
XXXXX705 0
XXXXX706 0
XXXXX707 0
XXXXX708 0
XXXXX709 0
XXXXX710 0
XXXXX711 0
XXXXX712 0
XXXXX713 0
XXXXX714 0
XXXXX715 0
XXXXX716 0
XXXXX717 0
XXXXX718 0
XXXXX719 0
XXXXX720 0
XXXXX721 0
XXXXX722 0
XXXXX723 0
XXXXX724 0
XXXXX725 0
XXXXX726 0
XXXXX727 0
XXXXX728 0
XXXXX729 0
XXXXX730 0
XXXXX731 0
XXXXX732 0
XXXXX733 0
XXXXX734 0
XXXXX735 0
XXXXX736 0
XXXXX737 0
XXXXX738 0
XXXXX739 0
XXXXX740 0
XXXXX741 0
XXXXX742 0
XXXXX743 0
XXXXX744 0
XXXXX745 0
XXXXX746 0
XXXXX747 0
XXXXX748 0
XXXXX749 0
XXXXX750 0
XXXXX751 0
XXXXX752 0
XXXXX753 0
XXXXX754 0
XXXXX755 0
XXXXX756 0
XXXXX757 0
XXXXX758 0
XXXXX759 0
XXXXX760 0
XXXXX761 0
XXXXX762 0
XXXXX763 0
XXXXX764 0
XXXXX765 0
XXXXX766 0
XXXXX767 0
XXXXX768 0
XXXXX769 0
XXXXX770 0
XXXXX771 0
XXXXX772 0
XXXXX773 0
XXXXX774 0
XXXXX775 0
XXXXX776 0
XXXXX777 0
XXXXX778 0
XXXXX779 0
XXXXX780 0
XXXXX781 0
XXXXX782 0
XXXXX783 0
XXXXX784 0
XXXXX785 0
XXXXX786 0
XXXXX787 0
XXXXX788 0
XXXXX789 0
XXXXX790 0
XXXXX791 0
XXXXX792 0
XXXXX793 0
XXXXX794 0
XXXXX795 0
XXXXX796 0
XXXXX797 0
XXXXX798 0
XXXXX799 0
XXXXX800 0
XXXXX801 0
XXXXX802 0
XXXXX803 0
XXXXX804 0
XXXXX805 0
XXXXX806 0
XXXXX807 0
XXXXX808 0
XXXXX809 0
XXXXX810 0
XXXXX811 0
XXXXX812 0
XXXXX813 0
XXXXX814 0
XXXXX815 0
XXXXX816 0
XXXXX817 0
XXXXX818 0
XXXXX819 0
XXXXX820 0
XXXXX821 0
XXXXX822 0
XXXXX823 0
XXXXX824 0
XXXXX825 0
XXXXX826 0
XXXXX827 0
XXXXX828 0
XXXXX829 0
XXXXX830 0
XXXXX831 0
XXXXX832 0
XXXXX833 0
XXXXX834 0
XXXXX835 0
XXXXX836 0
XXXXX837 0
XXXXX838 0
XXXXX839 0
XXXXX840 0
XXXXX841 0
XXXXX842 0
XXXXX843 0
XXXXX844 0
XXXXX845 0
XXXXX846 0
XXXXX847 0
XXXXX848 0
XXXXX849 0
XXXXX850 0
XXXXX851 0
XXXXX852 0
XXXXX853 0
XXXXX854 0
XXXXX855 0
XXXXX856 0
XXXXX857 0
XXXXX858 0
XXXXX859 0
XXXXX860 0
XXXXX861 0
XXXXX862 0
XXXXX863 0
XXXXX864 0
XXXXX865 0
XXXXX866 0
XXXXX867 0
XXXXX868 0
XXXXX869 0
XXXXX870 0
XXXXX871 0
XXXXX872 0
XXXXX873 0
XXXXX874 0
XXXXX875 0
XXXXX876 0
XXXXX877 0
XXXXX878 0
XXXXX879 0
XXXXX880 0
XXXXX881 0
XXXXX882 0
XXXXX883 0
XXXXX884 0
XXXXX885 0
XXXXX886 0
XXXXX887 0
XXXXX888 0
XXXXX889 0
XXXXX890 0
XXXXX891 0
XXXXX892 0
XXXXX893 0
XXXXX894 0
XXXXX895 0
XXXXX896 0
XXXXX897 0
XXXXX898 0
XXXXX899 0
XXXXX900 0
XXXXX901 0
XXXXX902 0
XXXXX903 0
XXXXX904 0
XXXXX905 0
XXXXX906 0
XXXXX907 0
XXXXX908 0
XXXXX909 0
XXXXX910 0
XXXXX911 0
XXXXX912 0
XXXXX913 0
XXXXX914 0
XXXXX915 0
XXXXX916 0
XXXXX917 0
XXXXX918 0
XXXXX919 0
XXXXX920 0
XXXXX921 0
XXXXX922 0
XXXXX923 0
XXXXX924 0
XXXXX925 0
XXXXX926 0
XXXXX927 0
XXXXX928 0
XXXXX929 0
XXXXX930 0
XXXXX931 0
XXXXX932 0
XXXXX933 0
XXXXX934 0
XXXXX935 0
XXXXX936 0
XXXXX937 0
XXXXX938 0
XXXXX939 0
XXXXX940 0
XXXXX941 0
XXXXX942 0
XXXXX943 0
XXXXX944 0
XXXXX945 0
XXXXX946 0
XXXXX947 0
XXXXX948 0
XXXXX949 0
XXXXX950 0
XXXXX951 0
XXXXX952 0
XXXXX953 0
XXXXX954 0
XXXXX955 0
XXXXX956 0
XXXXX957 0
XXXXX958 0
XXXXX959 0
XXXXX960 0
XXXXX961 0
XXXXX962 0
XXXXX963 0
XXXXX964 0
XXXXX965 0
XXXXX966 0
XXXXX967 0
XXXXX968 0
XXXXX969 0
XXXXX970 0
XXXXX971 0
XXXXX972 0
XXXXX973 0
XXXXX974 0
XXXXX975 0
XXXXX976 0
XXXXX977 0
XXXXX978 0
XXXXX979 0
XXXXX980 0
XXXXX981 0
XXXXX982 0
XXXXX983 0
XXXXX984 0
XXXXX985 0
XXXXX986 0
XXXXX987 0
XXXXX988 0
XXXXX989 0
XXXXX990 0
XXXXX991 0
XXXXX992 0
XXXXX993 0
XXXXX994 0
XXXXX995 0
XXXXX996 0
XXXXX997 0
XXXXX998 0
XXXXX999 0
XXXX1000 0
XXXX1001 0
XXXX1002 0
XXXX1003 0
XXXX1004 0
XXXX1005 0
XXXX1006 0
XXXX1007 0
XXXX1008 0
XXXX1009 0
XXXX1010 0
XXXX1011 0
XXXX1012 0
XXXX1013 0
XXXX1014 0
XXXX1015 0
XXXX1016 0
XXXX1017 0
XXXX1018 0
XXXX1019 0
XXXX1020 0
XXXX1021 0
XXXX1022 0
XXXX1023 0
XXXX1024 0
XXXX1025 0
XXXX1026 0
XXXX1027 0
XXXX1028 0
XXXX1029 0
XXXX1030 0
XXXX1031 0
XXXX1032 0
XXXX1033 0
XXXX1034 0
XXXX1035 0
XXXX1036 0
XXXX1037 0
XXXX1038 0
XXXX1039 0
XXXX1040 0
XXXX1041 0
XXXX1042 0
XXXX1043 0
XXXX1044 0
XXXX1045 0
XXXX1046 0
XXXX1047 0
XXXX1048 0
XXXX1049 0
XXXX1050 0
XXXX1051 0
XXXX1052 0
XXXX1053 0
XXXX1054 0
XXXX1055 0
XXXX1056 0
XXXX1057 0
XXXX1058 0
XXXX1059 0
XXXX1060 0
XXXX1061 0
XXXX1062 0
XXXX1063 0
XXXX1064 0
XXXX1065 0
XXXX1066 0
XXXX1067 0
XXXX1068 0
XXXX1069 0
XXXX1070 0
XXXX1071 0
XXXX1072 0
XXXX1073 0
XXXX1074 0
XXXX1075 0
XXXX1076 0
XXXX1077 0
XXXX1078 0
XXXX1079 0
XXXX1080 0
XXXX1081 0
XXXX1082 0
XXXX1083 0
XXXX1084 0
XXXX1085 0
XXXX1086 0
XXXX1087 0
XXXX1088 0
XXXX1089 0
XXXX1090 0
XXXX1091 0
XXXX1092 0
XXXX1093 0
XXXX1094 0
XXXX1095 0
XXXX1096 0
XXXX1097 0
XXXX1098 0
XXXX1099 0
XXXX1100 0
XXXX1101 0
XXXX1102 0
XXXX1103 0
XXXX1104 0
XXXX1105 0
XXXX1106 0
XXXX1107 0
XXXX1108 0
XXXX1109 0
XXXX1110 0
XXXX1111 0
XXXX1112 0
XXXX1113 0
XXXX1114 0
XXXX1115 0
XXXX1116 0
XXXX1117 0
XXXX1118 0
XXXX1119 0
XXXX1120 0
XXXX1121 0
XXXX1122 0
XXXX1123 0
XXXX1124 0
XXXX1125 0
XXXX1126 0
XXXX1127 0
XXXX1128 0
XXXX1129 0
XXXX1130 0
XXXX1131 0
XXXX1132 0
XXXX1133 0
XXXX1134 0
XXXX1135 0
XXXX1136 0
XXXX1137 0
XXXX1138 0
XXXX1139 0
XXXX1140 0
XXXX1141 0
XXXX1142 0
XXXX1143 0
XXXX1144 0
XXXX1145 0
XXXX1146 0
XXXX1147 0
XXXX1148 0
XXXX1149 0
XXXX1150 0
XXXX1151 0
XXXX1152 0
XXXX1153 0
XXXX1154 0
XXXX1155 0
XXXX1156 0
XXXX1157 0
XXXX1158 0
XXXX1159 0
XXXX1160 0
XXXX1161 0
XXXX1162 0
XXXX1163 0
XXXX1164 0
XXXX1165 0
XXXX1166 0
XXXX1167 0
XXXX1168 0
XXXX1169 0
XXXX1170 0
XXXX1171 0
XXXX1172 0
XXXX1173 0
XXXX1174 0
XXXX1175 0
XXXX1176 0
XXXX1177 0
XXXX1178 0
XXXX1179 0
XXXX1180 0
XXXX1181 0
XXXX1182 0
XXXX1183 0
XXXX1184 0
XXXX1185 0
XXXX1186 0
XXXX1187 0
XXXX1188 0
XXXX1189 0
XXXX1190 0
XXXX1191 0
XXXX1192 0
XXXX1193 0
XXXX1194 0
XXXX1195 0
XXXX1196 0
XXXX1197 0
XXXX1198 0
XXXX1199 0
XXXX1200 0
XXXX1201 0
XXXX1202 0
XXXX1203 0
XXXX1204 0
XXXX1205 0
XXXX1206 0
XXXX1207 0
XXXX1208 0
XXXX1209 0
XXXX1210 0
XXXX1211 0
XXXX1212 0
XXXX1213 0
XXXX1214 0
XXXX1215 0
XXXX1216 0
XXXX1217 0
XXXX1218 0
XXXX1219 0
XXXX1220 0
XXXX1221 0
XXXX1222 0
XXXX1223 0
XXXX1224 0
XXXX1225 0
XXXX1226 0
XXXX1227 0
XXXX1228 0
XXXX1229 0
XXXX1230 0
XXXX1231 0
XXXX1232 0
XXXX1233 0
XXXX1234 0
XXXX1235 0
XXXX1236 0
XXXX1237 0
XXXX1238 0
XXXX1239 0
XXXX1240 0
XXXX1241 0
XXXX1242 0
XXXX1243 0
XXXX1244 0
XXXX1245 0
XXXX1246 0
XXXX1247 0
XXXX1248 0
XXXX1249 0
XXXX1250 0
XXXX1251 0
XXXX1252 0
XXXX1253 0
XXXX1254 0
XXXX1255 0
XXXX1256 0
XXXX1257 0
XXXX1258 0
XXXX1259 0
XXXX1260 0
XXXX1261 0
XXXX1262 0
XXXX1263 0
XXXX1264 0
XXXX1265 0
XXXX1266 0
XXXX1267 0
XXXX1268 0
XXXX1269 0
XXXX1270 0
XXXX1271 0
XXXX1272 0
XXXX1273 0
XXXX1274 0
XXXX1275 0
XXXX1276 0
XXXX1277 0
XXXX1278 0
XXXX1279 0
XXXX1280 0
XXXX1281 0
XXXX1282 0
XXXX1283 0
XXXX1284 0
XXXX1285 0
XXXX1286 0
XXXX1287 0
XXXX1288 0
XXXX1289 0
XXXX1290 0
XXXX1291 0
XXXX1292 0
XXXX1293 0
XXXX1294 0
XXXX1295 0
XXXX1296 0
XXXX1297 0
XXXX1298 0
XXXX1299 0
XXXX1300 0
XXXX1301 0
XXXX1302 0
XXXX1303 0
XXXX1304 0
XXXX1305 0
XXXX1306 0
XXXX1307 0
XXXX1308 0
XXXX1309 0
XXXX1310 0
XXXX1311 0
XXXX1312 0
XXXX1313 0
XXXX1314 0
XXXX1315 0
XXXX1316 0
XXXX1317 0
XXXX1318 0
XXXX1319 0
XXXX1320 0
XXXX1321 0
XXXX1322 0
XXXX1323 0
XXXX1324 0
XXXX1325 0
XXXX1326 0
XXXX1327 0
XXXX1328 0
XXXX1329 0
XXXX1330 0
XXXX1331 0
XXXX1332 0
XXXX1333 0
XXXX1334 0
XXXX1335 0
XXXX1336 0
XXXX1337 0
XXXX1338 0
XXXX1339 0
XXXX1340 0
XXXX1341 0
XXXX1342 0
XXXX1343 0
XXXX1344 0
XXXX1345 0
XXXX1346 0
XXXX1347 0
XXXX1348 0
XXXX1349 0
XXXX1350 0
XXXX1351 0
XXXX1352 0
XXXX1353 0
XXXX1354 0
XXXX1355 0
XXXX1356 0
XXXX1357 0
XXXX1358 0
XXXX1359 0
XXXX1360 0
XXXX1361 0
XXXX1362 0
XXXX1363 0
XXXX1364 0
XXXX1365 0
XXXX1366 0
XXXX1367 0
XXXX1368 0
XXXX1369 0
XXXX1370 0
XXXX1371 0
XXXX1372 0
XXXX1373 0
XXXX1374 0
XXXX1375 0
XXXX1376 0
XXXX1377 0
XXXX1378 0
XXXX1379 0
XXXX1380 0
XXXX1381 0
XXXX1382 0
XXXX1383 0
XXXX1384 0
XXXX1385 0
XXXX1386 0
XXXX1387 0
XXXX1388 0
XXXX1389 0
XXXX1390 0
XXXX1391 0
XXXX1392 0
XXXX1393 0
XXXX1394 0
XXXX1395 0
XXXX1396 0
XXXX1397 0
XXXX1398 0
XXXX1399 0
XXXX1400 0
XXXX1401 0
XXXX1402 0
XXXX1403 0
XXXX1404 0
XXXX1405 0
XXXX1406 0
XXXX1407 0
XXXX1408 0
XXXX1409 0
XXXX1410 0
XXXX1411 0
XXXX1412 0
XXXX1413 0
XXXX1414 0
XXXX1415 0
XXXX1416 0
XXXX1417 0
XXXX1418 0
XXXX1419 0
XXXX1420 0
XXXX1421 0
XXXX1422 0
XXXX1423 0
XXXX1424 0
XXXX1425 0
XXXX1426 0
XXXX1427 0
XXXX1428 0
XXXX1429 0
XXXX1430 0
XXXX1431 0
XXXX1432 0
XXXX1433 0
XXXX1434 0
XXXX1435 0
XXXX1436 0
XXXX1437 0
XXXX1438 0
XXXX1439 0
XXXX1440 0
XXXX1441 0
XXXX1442 0
XXXX1443 0
XXXX1444 0
XXXX1445 0
XXXX1446 0
XXXX1447 0
XXXX1448 0
XXXX1449 0
XXXX1450 0
XXXX1451 0
XXXX1452 0
XXXX1453 0
XXXX1454 0
XXXX1455 0
XXXX1456 0
XXXX1457 0
XXXX1458 0
XXXX1459 0
XXXX1460 0
XXXX1461 0
XXXX1462 0
XXXX1463 0
XXXX1464 0
XXXX1465 0
XXXX1466 0
XXXX1467 0
XXXX1468 0
XXXX1469 0
XXXX1470 0
XXXX1471 0
XXXX1472 0
XXXX1473 0
XXXX1474 0
XXXX1475 0
XXXX1476 0
XXXX1477 0
XXXX1478 0
XXXX1479 0
XXXX1480 0
XXXX1481 0
XXXX1482 0
XXXX1483 0
XXXX1484 0
XXXX1485 0
XXXX1486 0
XXXX1487 0
XXXX1488 0
XXXX1489 0
XXXX1490 0
XXXX1491 0
XXXX1492 0
XXXX1493 0
XXXX1494 0
XXXX1495 0
XXXX1496 0
XXXX1497 0
XXXX1498 0
XXXX1499 0
XXXX1500 0
XXXX1501 0
XXXX1502 0
XXXX1503 0
XXXX1504 0
XXXX1505 0
XXXX1506 0
XXXX1507 0
XXXX1508 0
XXXX1509 0
XXXX1510 0
XXXX1511 0
XXXX1512 0
XXXX1513 0
XXXX1514 0
XXXX1515 0
XXXX1516 0
XXXX1517 0
XXXX1518 0
XXXX1519 0
XXXX1520 0
XXXX1521 0
XXXX1522 0
XXXX1523 0
XXXX1524 0
XXXX1525 0
XXXX1526 0
XXXX1527 0
XXXX1528 0
XXXX1529 0
XXXX1530 0
XXXX1531 0
XXXX1532 0
XXXX1533 0
XXXX1534 0
XXXX1535 0
XXXX1536 0
XXXX1537 0
XXXX1538 0
XXXX1539 0
XXXX1540 0
XXXX1541 0
XXXX1542 0
XXXX1543 0
XXXX1544 0
XXXX1545 0
XXXX1546 0
XXXX1547 0
XXXX1548 0
XXXX1549 0
XXXX1550 0
XXXX1551 0
XXXX1552 0
XXXX1553 0
XXXX1554 0
XXXX1555 0
XXXX1556 0
XXXX1557 0
XXXX1558 0
XXXX1559 0
XXXX1560 0
XXXX1561 0
XXXX1562 0
XXXX1563 0
XXXX1564 0
XXXX1565 0
XXXX1566 0
XXXX1567 0
XXXX1568 0
XXXX1569 0
XXXX1570 0
XXXX1571 0
XXXX1572 0
XXXX1573 0
XXXX1574 0
XXXX1575 0
XXXX1576 0
XXXX1577 0
XXXX1578 0
XXXX1579 0
XXXX1580 0
XXXX1581 0
XXXX1582 0
XXXX1583 0
XXXX1584 0
XXXX1585 0
XXXX1586 0
XXXX1587 0
XXXX1588 0
XXXX1589 0
XXXX1590 0
XXXX1591 0
XXXX1592 0
XXXX1593 0
XXXX1594 0
XXXX1595 0
XXXX1596 0
XXXX1597 0
XXXX1598 0
XXXX1599 0
XXXX1600 0
XXXX1601 0
XXXX1602 0
XXXX1603 0
XXXX1604 0
XXXX1605 0
XXXX1606 0
XXXX1607 0
XXXX1608 0
XXXX1609 0
XXXX1610 0
XXXX1611 0
XXXX1612 0
XXXX1613 0
XXXX1614 0
XXXX1615 0
XXXX1616 0
XXXX1617 0
XXXX1618 0
XXXX1619 0
XXXX1620 0
XXXX1621 0
XXXX1622 0
XXXX1623 0
XXXX1624 0
XXXX1625 0
XXXX1626 0
XXXX1627 0
XXXX1628 0
XXXX1629 0
XXXX1630 0
XXXX1631 0
XXXX1632 0
XXXX1633 0
XXXX1634 0
XXXX1635 0
XXXX1636 0
XXXX1637 0
XXXX1638 0
XXXX1639 0
XXXX1640 0
XXXX1641 0
XXXX1642 0
XXXX1643 0
XXXX1644 0
XXXX1645 0
XXXX1646 0
XXXX1647 0
XXXX1648 0
XXXX1649 0
XXXX1650 0
XXXX1651 0
XXXX1652 0
XXXX1653 0
XXXX1654 0
XXXX1655 0
XXXX1656 0
XXXX1657 0
XXXX1658 0
XXXX1659 0
XXXX1660 0
XXXX1661 0
XXXX1662 0
XXXX1663 0
XXXX1664 0
XXXX1665 0
XXXX1666 0
XXXX1667 0
XXXX1668 0
XXXX1669 0
XXXX1670 0
XXXX1671 0
XXXX1672 0
XXXX1673 0
XXXX1674 0
XXXX1675 0
XXXX1676 0
XXXX1677 0
XXXX1678 0
XXXX1679 0
XXXX1680 0
XXXX1681 0
XXXX1682 0
XXXX1683 0
XXXX1684 0
XXXX1685 0
XXXX1686 0
XXXX1687 0
XXXX1688 0
XXXX1689 0
XXXX1690 0
XXXX1691 0
XXXX1692 0
XXXX1693 0
XXXX1694 0
XXXX1695 0
XXXX1696 0
XXXX1697 0
XXXX1698 0
XXXX1699 0
XXXX1700 0
XXXX1701 0
XXXX1702 0
XXXX1703 0
XXXX1704 0
XXXX1705 0
XXXX1706 0
XXXX1707 0
XXXX1708 0
XXXX1709 0
XXXX1710 0
XXXX1711 0
XXXX1712 0
XXXX1713 0
XXXX1714 0
XXXX1715 0
XXXX1716 0
XXXX1717 0
XXXX1718 0
XXXX1719 0
XXXX1720 0
XXXX1721 0
XXXX1722 0
XXXX1723 0
XXXX1724 0
XXXX1725 0
XXXX1726 0
XXXX1727 0
XXXX1728 0
XXXX1729 0
XXXX1730 0
XXXX1731 0
XXXX1732 0
XXXX1733 0
XXXX1734 0
XXXX1735 0
XXXX1736 0
XXXX1737 0
XXXX1738 0
XXXX1739 0
XXXX1740 0
XXXX1741 0
XXXX1742 0
XXXX1743 0
XXXX1744 0
XXXX1745 0
XXXX1746 0
XXXX1747 0
XXXX1748 0
XXXX1749 0
XXXX1750 0
XXXX1751 0
XXXX1752 0
XXXX1753 0
XXXX1754 0
XXXX1755 0
XXXX1756 0
XXXX1757 0
XXXX1758 0
XXXX1759 0
XXXX1760 0
XXXX1761 0
XXXX1762 0
XXXX1763 0
XXXX1764 0
XXXX1765 0
XXXX1766 0
XXXX1767 0
XXXX1768 0
XXXX1769 0
XXXX1770 0
XXXX1771 0
XXXX1772 0
XXXX1773 0
XXXX1774 0
XXXX1775 0
XXXX1776 0
XXXX1777 0
XXXX1778 0
XXXX1779 0
XXXX1780 0
XXXX1781 0
XXXX1782 0
XXXX1783 0
XXXX1784 0
XXXX1785 0
XXXX1786 0
XXXX1787 0
XXXX1788 0
XXXX1789 0
XXXX1790 0
XXXX1791 0
XXXX1792 0
XXXX1793 0
XXXX1794 0
XXXX1795 0
XXXX1796 0
XXXX1797 0
XXXX1798 0
XXXX1799 0
XXXX1800 0
XXXX1801 0
XXXX1802 0
XXXX1803 0
XXXX1804 0
XXXX1805 0
XXXX1806 0
XXXX1807 0
XXXX1808 0
XXXX1809 0
XXXX1810 0
XXXX1811 0
XXXX1812 0
XXXX1813 0
XXXX1814 0
XXXX1815 0
XXXX1816 0
XXXX1817 0
XXXX1818 0
XXXX1819 0
XXXX1820 0
XXXX1821 0
XXXX1822 0
XXXX1823 0
XXXX1824 0
XXXX1825 0
XXXX1826 0
XXXX1827 0
XXXX1828 0
XXXX1829 0
XXXX1830 0
XXXX1831 0
XXXX1832 0
XXXX1833 0
XXXX1834 0
XXXX1835 0
XXXX1836 0
XXXX1837 0
XXXX1838 0
XXXX1839 0
XXXX1840 0
XXXX1841 0
XXXX1842 0
XXXX1843 0
XXXX1844 0
XXXX1845 0
XXXX1846 0
XXXX1847 0
XXXX1848 0
XXXX1849 0
XXXX1850 0
XXXX1851 0
XXXX1852 0
XXXX1853 0
XXXX1854 0
XXXX1855 0
XXXX1856 0
XXXX1857 0
XXXX1858 0
XXXX1859 0
XXXX1860 0
XXXX1861 0
XXXX1862 0
XXXX1863 0
XXXX1864 0
XXXX1865 0
XXXX1866 0
XXXX1867 0
XXXX1868 0
XXXX1869 0
XXXX1870 0
XXXX1871 0
XXXX1872 0
XXXX1873 0
XXXX1874 0
XXXX1875 0
XXXX1876 0
XXXX1877 0
XXXX1878 0
XXXX1879 0
XXXX1880 0
XXXX1881 0
XXXX1882 0
XXXX1883 0
XXXX1884 0
XXXX1885 0
XXXX1886 0
XXXX1887 0
XXXX1888 0
XXXX1889 0
XXXX1890 0
XXXX1891 0
XXXX1892 0
XXXX1893 0
XXXX1894 0
XXXX1895 0
XXXX1896 0
XXXX1897 0
XXXX1898 0
XXXX1899 0
XXXX1900 0
XXXX1901 0
XXXX1902 0
XXXX1903 0
XXXX1904 0
XXXX1905 0
XXXX1906 0
XXXX1907 0
XXXX1908 0
XXXX1909 0
XXXX1910 0
XXXX1911 0
XXXX1912 0
XXXX1913 0
XXXX1914 0
XXXX1915 0
XXXX1916 0
XXXX1917 0
XXXX1918 0
XXXX1919 0
XXXX1920 0
XXXX1921 0
XXXX1922 0
XXXX1923 0
XXXX1924 0
XXXX1925 0
XXXX1926 0
XXXX1927 0
XXXX1928 0
XXXX1929 0
XXXX1930 0
XXXX1931 0
XXXX1932 0
XXXX1933 0
XXXX1934 0
XXXX1935 0
XXXX1936 0
XXXX1937 0
XXXX1938 0
XXXX1939 0
XXXX1940 0
XXXX1941 0
XXXX1942 0
XXXX1943 0
XXXX1944 0
XXXX1945 0
XXXX1946 0
XXXX1947 0
XXXX1948 0
XXXX1949 0
XXXX1950 0
XXXX1951 0
XXXX1952 0
XXXX1953 0
XXXX1954 0
XXXX1955 0
XXXX1956 0
XXXX1957 0
XXXX1958 0
XXXX1959 0
XXXX1960 0
XXXX1961 0
XXXX1962 0
XXXX1963 0
XXXX1964 0
XXXX1965 0
XXXX1966 0
XXXX1967 0
XXXX1968 0
XXXX1969 0
XXXX1970 0
XXXX1971 0
XXXX1972 0
XXXX1973 0
XXXX1974 0
XXXX1975 0
XXXX1976 0
XXXX1977 0
XXXX1978 0
XXXX1979 0
XXXX1980 0
XXXX1981 0
XXXX1982 0
XXXX1983 0
XXXX1984 0
XXXX1985 0
XXXX1986 0
XXXX1987 0
XXXX1988 0
XXXX1989 0
XXXX1990 0
XXXX1991 0
XXXX1992 0
XXXX1993 0
XXXX1994 0
XXXX1995 0
XXXX1996 0
XXXX1997 0
XXXX1998 0
XXXX1999 0
XXXX2000 0
XXXX2001 0
XXXX2002 0
XXXX2003 0
XXXX2004 0
XXXX2005 0
XXXX2006 0
XXXX2007 0
XXXX2008 0
XXXX2009 0
XXXX2010 0
XXXX2011 0
XXXX2012 0
XXXX2013 0
XXXX2014 0
XXXX2015 0
XXXX2016 0
XXXX2017 0
XXXX2018 0
XXXX2019 0
XXXX2020 0
XXXX2021 0
XXXX2022 0
XXXX2023 0
XXXX2024 0
XXXX2025 0
XXXX2026 0
XXXX2027 0
XXXX2028 0
XXXX2029 0
XXXX2030 0
XXXX2031 0
XXXX2032 0
XXXX2033 0
XXXX2034 0
XXXX2035 0
XXXX2036 0
XXXX2037 0
XXXX2038 0
XXXX2039 0
XXXX2040 0
XXXX2041 0
XXXX2042 0
XXXX2043 0
XXXX2044 0
XXXX2045 0
XXXX2046 0
XXXX2047 0
XXXX2048 0
XXXX2049 0
XXXX2050 0
XXXX2051 0
XXXX2052 0
XXXX2053 0
XXXX2054 0
XXXX2055 0
XXXX2056 0
XXXX2057 0
XXXX2058 0
XXXX2059 0
XXXX2060 0
XXXX2061 0
XXXX2062 0
XXXX2063 0
XXXX2064 0
XXXX2065 0
XXXX2066 0
XXXX2067 0
XXXX2068 0
XXXX2069 0
XXXX2070 0
XXXX2071 0
XXXX2072 0
XXXX2073 0
XXXX2074 0
XXXX2075 0
XXXX2076 0
XXXX2077 0
XXXX2078 0
XXXX2079 0
XXXX2080 0
XXXX2081 0
XXXX2082 0
XXXX2083 0
XXXX2084 0
XXXX2085 0
XXXX2086 0
XXXX2087 0
XXXX2088 0
XXXX2089 0
XXXX2090 0
XXXX2091 0
XXXX2092 0
XXXX2093 0
XXXX2094 0
XXXX2095 0
XXXX2096 0
XXXX2097 0
XXXX2098 0
XXXX2099 0
XXXX2100 0
XXXX2101 0
XXXX2102 0
XXXX2103 0
XXXX2104 0
XXXX2105 0
XXXX2106 0
XXXX2107 0
XXXX2108 0
XXXX2109 0
XXXX2110 0
XXXX2111 0
XXXX2112 0
XXXX2113 0
XXXX2114 0
XXXX2115 0
XXXX2116 0
XXXX2117 0
XXXX2118 0
XXXX2119 0
XXXX2120 0
XXXX2121 0
XXXX2122 0
XXXX2123 0
XXXX2124 0
XXXX2125 0
XXXX2126 0
XXXX2127 0
XXXX2128 0
XXXX2129 0
XXXX2130 0
XXXX2131 0
XXXX2132 0
XXXX2133 0
XXXX2134 0
XXXX2135 0
XXXX2136 0
XXXX2137 0
XXXX2138 0
XXXX2139 0
XXXX2140 0
XXXX2141 0
XXXX2142 0
XXXX2143 0
XXXX2144 0
XXXX2145 0
XXXX2146 0
XXXX2147 0
XXXX2148 0
XXXX2149 0
XXXX2150 0
XXXX2151 0
XXXX2152 0
XXXX2153 0
XXXX2154 0
XXXX2155 0
XXXX2156 0
XXXX2157 0
XXXX2158 0
XXXX2159 0
XXXX2160 0
XXXX2161 0
XXXX2162 0
XXXX2163 0
XXXX2164 0
XXXX2165 0
XXXX2166 0
XXXX2167 0
XXXX2168 0
XXXX2169 0
XXXX2170 0
XXXX2171 0
XXXX2172 0
XXXX2173 0
XXXX2174 0
XXXX2175 0
XXXX2176 0
XXXX2177 0
XXXX2178 0
XXXX2179 0
XXXX2180 0
XXXX2181 0
XXXX2182 0
XXXX2183 0
XXXX2184 0
XXXX2185 0
XXXX2186 0
XXXX2187 0
XXXX2188 0
XXXX2189 0
XXXX2190 0
XXXX2191 0
XXXX2192 0
XXXX2193 0
XXXX2194 0
XXXX2195 0
XXXX2196 0
XXXX2197 0
XXXX2198 0
XXXX2199 0
XXXX2200 0
XXXX2201 0
XXXX2202 0
XXXX2203 0
XXXX2204 0
XXXX2205 0
XXXX2206 0
XXXX2207 0
XXXX2208 0
XXXX2209 0
XXXX2210 0
XXXX2211 0
XXXX2212 0
XXXX2213 0
XXXX2214 0
XXXX2215 0
XXXX2216 0
XXXX2217 0
XXXX2218 0
XXXX2219 0
XXXX2220 0
XXXX2221 0
XXXX2222 0
XXXX2223 0
XXXX2224 0
XXXX2225 0
XXXX2226 0
XXXX2227 0
XXXX2228 0
XXXX2229 0
XXXX2230 0
XXXX2231 0
XXXX2232 0
XXXX2233 0
XXXX2234 0
XXXX2235 0
XXXX2236 0
XXXX2237 0
XXXX2238 0
XXXX2239 0
XXXX2240 0
XXXX2241 0
XXXX2242 0
XXXX2243 0
XXXX2244 0
XXXX2245 0
XXXX2246 0
XXXX2247 0
XXXX2248 0
XXXX2249 0
XXXX2250 0
XXXX2251 0
XXXX2252 0
XXXX2253 0
XXXX2254 0
XXXX2255 0
XXXX2256 0
XXXX2257 0
XXXX2258 0
XXXX2259 0
XXXX2260 0
XXXX2261 0
XXXX2262 0
XXXX2263 0
XXXX2264 0
XXXX2265 0
XXXX2266 0
XXXX2267 0
XXXX2268 0
XXXX2269 0
XXXX2270 0
XXXX2271 0
XXXX2272 0
XXXX2273 0
XXXX2274 0
XXXX2275 0
XXXX2276 0
XXXX2277 0
XXXX2278 0
XXXX2279 0
XXXX2280 0
XXXX2281 0
XXXX2282 0
XXXX2283 0
XXXX2284 0
XXXX2285 0
XXXX2286 0
XXXX2287 0
XXXX2288 0
XXXX2289 0
XXXX2290 0
XXXX2291 0
XXXX2292 0
XXXX2293 0
XXXX2294 0
XXXX2295 0
XXXX2296 0
XXXX2297 0
XXXX2298 0
XXXX2299 0
XXXX2300 0
XXXX2301 0
XXXX2302 0
XXXX2303 0
XXXX2304 0
XXXX2305 0
XXXX2306 0
XXXX2307 0
XXXX2308 0
XXXX2309 0
XXXX2310 0
XXXX2311 0
XXXX2312 0
XXXX2313 0
XXXX2314 0
XXXX2315 0
XXXX2316 0
XXXX2317 0
XXXX2318 0
XXXX2319 0
XXXX2320 0
XXXX2321 0
XXXX2322 0
XXXX2323 0
XXXX2324 0
XXXX2325 0
XXXX2326 0
XXXX2327 0
XXXX2328 0
XXXX2329 0
XXXX2330 0
XXXX2331 0
XXXX2332 0
XXXX2333 0
XXXX2334 0
XXXX2335 0
XXXX2336 0
XXXX2337 0
XXXX2338 0
XXXX2339 0
XXXX2340 0
XXXX2341 0
XXXX2342 0
XXXX2343 0
XXXX2344 0
XXXX2345 0
XXXX2346 0
XXXX2347 0
XXXX2348 0
XXXX2349 0
XXXX2350 0
XXXX2351 0
XXXX2352 0
XXXX2353 0
XXXX2354 0
XXXX2355 0
XXXX2356 0
XXXX2357 0
XXXX2358 0
XXXX2359 0
XXXX2360 0
XXXX2361 0
XXXX2362 0
XXXX2363 0
XXXX2364 0
XXXX2365 0
XXXX2366 0
XXXX2367 0
XXXX2368 0
XXXX2369 0
XXXX2370 0
XXXX2371 0
XXXX2372 0
XXXX2373 0
XXXX2374 0
XXXX2375 0
XXXX2376 0
XXXX2377 0
XXXX2378 0
XXXX2379 0
XXXX2380 0
XXXX2381 0
XXXX2382 0
XXXX2383 0
XXXX2384 0
XXXX2385 0
XXXX2386 0
XXXX2387 0
XXXX2388 0
XXXX2389 0
XXXX2390 0
XXXX2391 0
XXXX2392 0
XXXX2393 0
XXXX2394 0
XXXX2395 0
XXXX2396 0
XXXX2397 0
XXXX2398 0
XXXX2399 0
XXXX2400 0
XXXX2401 0
XXXX2402 0
XXXX2403 0
XXXX2404 0
XXXX2405 0
XXXX2406 0
XXXX2407 0
XXXX2408 0
XXXX2409 0
XXXX2410 0
XXXX2411 0
XXXX2412 0
XXXX2413 0
XXXX2414 0
XXXX2415 0
XXXX2416 0
XXXX2417 0
XXXX2418 0
XXXX2419 0
XXXX2420 0
XXXX2421 0
XXXX2422 0
XXXX2423 0
XXXX2424 0
XXXX2425 0
XXXX2426 0
XXXX2427 0
XXXX2428 0
XXXX2429 0
XXXX2430 0
XXXX2431 0
XXXX2432 0
XXXX2433 0
XXXX2434 0
XXXX2435 0
XXXX2436 0
XXXX2437 0
XXXX2438 0
XXXX2439 0
XXXX2440 0
XXXX2441 0
XXXX2442 0
XXXX2443 0
XXXX2444 0
XXXX2445 0
XXXX2446 0
XXXX2447 0
XXXX2448 0
XXXX2449 0
XXXX2450 0
XXXX2451 0
XXXX2452 0
XXXX2453 0
XXXX2454 0
XXXX2455 0
XXXX2456 0
XXXX2457 0
XXXX2458 0
XXXX2459 0
XXXX2460 0
XXXX2461 0
XXXX2462 0
XXXX2463 0
XXXX2464 0
XXXX2465 0
XXXX2466 0
XXXX2467 0
XXXX2468 0
XXXX2469 0
XXXX2470 0
XXXX2471 0
XXXX2472 0
XXXX2473 0
XXXX2474 0
XXXX2475 0
XXXX2476 0
XXXX2477 0
XXXX2478 0
XXXX2479 0
XXXX2480 0
XXXX2481 0
XXXX2482 0
XXXX2483 0
XXXX2484 0
XXXX2485 0
XXXX2486 0
XXXX2487 0
XXXX2488 0
XXXX2489 0
XXXX2490 0
XXXX2491 0
XXXX2492 0
XXXX2493 0
XXXX2494 0
XXXX2495 0
XXXX2496 0
XXXX2497 0
XXXX2498 0
XXXX2499 0
XXXX2500 0
XXXX2501 0
XXXX2502 0
XXXX2503 0
XXXX2504 0
XXXX2505 0
XXXX2506 0
XXXX2507 0
XXXX2508 0
XXXX2509 0
XXXX2510 0
XXXX2511 0
XXXX2512 0
XXXX2513 0
XXXX2514 0
XXXX2515 0
XXXX2516 0
XXXX2517 0
XXXX2518 0
XXXX2519 0
XXXX2520 0
XXXX2521 0
XXXX2522 0
XXXX2523 0
XXXX2524 0
XXXX2525 0
XXXX2526 0
XXXX2527 0
XXXX2528 0
XXXX2529 0
XXXX2530 0
XXXX2531 0
XXXX2532 0
XXXX2533 0
XXXX2534 0
XXXX2535 0
XXXX2536 0
XXXX2537 0
XXXX2538 0
XXXX2539 0
XXXX2540 0
XXXX2541 0
XXXX2542 0
XXXX2543 0
XXXX2544 0
XXXX2545 0
XXXX2546 0
XXXX2547 0
XXXX2548 0
XXXX2549 0
XXXX2550 0
XXXX2551 0
XXXX2552 0
XXXX2553 0
XXXX2554 0
XXXX2555 0
XXXX2556 0
XXXX2557 0
XXXX2558 0
XXXX2559 0
XXXX2560 0
XXXX2561 0
XXXX2562 0
XXXX2563 0
XXXX2564 0
YYYYYYY0 0
YYYYYYY1 0
YYYYYYY2 0
YYYYYYY3 0
YYYYYYY4 0
YYYYYYY5 0
YYYYYYY6 0
YYYYYYY7 0
YYYYYYY8 0
YYYYYYY9 0
YYYYYY10 0
YYYYYY11 0
YYYYYY12 0
YYYYYY13 0
YYYYYY14 0
YYYYYY15 0
YYYYYY16 0
YYYYYY17 0
YYYYYY18 0
YYYYYY19 0
YYYYYY20 0
YYYYYY21 0
YYYYYY22 0
YYYYYY23 0
YYYYYY24 0
YYYYYY25 0
YYYYYY26 0
YYYYYY27 0
YYYYYY28 0
YYYYYY29 0
YYYYYY30 0
YYYYYY31 0
YYYYYY32 0
YYYYYY33 0
YYYYYY34 0
YYYYYY35 0
YYYYYY36 0
YYYYYY37 0
YYYYYY38 0
YYYYYY39 0
YYYYYY40 0
YYYYYY41 0
YYYYYY42 0
YYYYYY43 0
YYYYYY44 0
YYYYYY45 0
YYYYYY46 0
YYYYYY47 0
YYYYYY48 0
YYYYYY49 0
